Customers:	100	Capacity:	200	Time Bins	4 	Vehicles: 15

Cust	X	Y	Demand	Start	End	Service	PreBin	0-160	160-320	320-480
D	40	50	0	0	240	0	0	0	0	0
0	25	85	20	0	191	10	10	10	80	0
1	22	75	30	0	199	10	10	10	80	0
2	22	85	10	0	190	10	10	10	80	0
3	20	80	40	141	171	10	10	10	80	0
4	20	85	20	0	189	10	10	10	80	0
5	18	75	20	0	196	10	10	10	80	0
6	15	75	20	0	194	10	10	10	80	0
7	15	80	10	91	121	10	10	90	0	0
8	10	35	20	91	121	10	10	90	0	0
9	10	40	30	0	198	10	10	10	80	0
10	8	40	40	59	89	10	10	90	0	0
11	8	45	20	0	197	10	10	10	80	0
12	5	35	10	142	172	10	10	10	80	0
13	5	45	10	0	194	10	10	10	80	0
14	2	40	20	58	88	10	10	90	0	0
15	0	40	20	0	188	10	10	10	80	0
16	0	45	20	0	189	10	10	10	80	0
17	44	5	20	0	184	10	10	10	80	0
18	42	10	40	0	189	10	10	10	80	0
19	42	15	10	0	194	10	10	10	80	0
20	40	5	10	0	185	10	10	10	80	0
21	40	15	40	0	195	10	10	10	80	0
22	38	5	30	65	95	10	10	90	0	0
23	38	15	10	0	194	10	10	10	80	0
24	35	5	20	154	184	10	10	10	80	0
25	95	30	30	0	171	10	10	10	80	0
26	95	35	20	0	172	10	10	10	80	0
27	92	30	10	0	174	10	10	10	80	0
28	90	35	10	0	177	10	10	10	80	0
29	88	30	10	0	178	10	10	10	80	0
30	88	35	20	0	179	10	10	10	80	0
31	87	30	10	0	178	10	10	10	80	0
32	85	25	10	0	178	10	10	10	80	0
33	85	35	30	0	182	10	10	10	80	0
34	67	85	20	0	185	10	10	10	80	0
35	65	85	40	0	186	10	10	10	80	0
36	65	82	10	0	189	10	10	10	80	0
37	62	80	30	75	105	10	10	90	0	0
38	60	80	10	0	193	10	10	10	80	0
39	60	85	30	0	189	10	10	10	80	0
40	58	75	20	0	199	10	10	10	80	0
41	55	80	10	0	196	10	10	10	80	0
42	55	85	20	0	191	10	10	10	80	0
43	55	82	10	64	94	10	10	90	0	0
44	20	82	10	0	192	10	10	10	80	0
45	18	80	10	0	192	10	10	10	80	0
46	2	45	10	0	191	10	10	10	80	0
47	42	5	10	0	184	10	10	10	80	0
48	42	12	10	0	191	10	10	10	80	0
49	72	35	30	0	194	10	10	10	80	0
50	55	20	19	0	196	10	10	10	80	0
51	25	30	3	0	205	10	10	10	80	0
52	20	50	5	91	121	10	10	90	0	0
53	55	60	16	0	211	10	10	10	80	0
54	30	60	16	140	170	10	10	10	80	0
55	50	35	19	0	211	10	10	10	80	0
56	30	25	23	0	203	10	10	10	80	0
57	15	10	20	152	182	10	10	10	80	0
58	10	20	19	0	187	10	10	10	80	0
59	15	60	17	0	203	10	10	10	80	0
60	45	65	9	0	214	10	10	10	80	0
61	65	35	3	52	82	10	10	90	0	0
62	65	20	6	0	190	10	10	10	80	0
63	45	30	17	0	209	10	10	10	80	0
64	35	40	16	0	218	10	10	10	80	0
65	41	37	16	0	216	10	10	10	80	0
66	64	42	9	70	100	10	10	90	0	0
67	40	60	21	0	220	10	10	10	80	0
68	31	52	27	41	71	10	100	0	0	0
69	35	69	23	0	210	10	10	10	80	0
70	65	55	14	0	204	10	10	10	80	0
71	63	65	8	0	202	10	10	10	80	0
72	2	60	5	0	190	10	10	10	80	0
73	20	20	8	141	171	10	10	10	80	0
74	5	5	16	0	172	10	10	10	80	0
75	60	12	31	75	105	10	10	90	0	0
76	23	3	7	150	180	10	10	10	80	0
77	8	56	27	0	197	10	10	10	80	0
78	6	68	30	89	119	10	10	90	0	0
79	47	47	13	0	222	10	10	10	80	0
80	49	58	10	0	217	10	10	10	80	0
81	27	43	9	0	215	10	10	10	80	0
82	37	31	14	0	210	10	10	10	80	0
83	57	29	18	96	126	10	10	90	0	0
84	63	23	2	0	194	10	10	10	80	0
85	21	24	28	0	197	10	10	10	80	0
86	12	24	13	90	120	10	10	90	0	0
87	24	58	19	0	212	10	10	10	80	0
88	67	5	25	0	177	10	10	10	80	0
89	37	47	6	0	225	10	10	10	80	0
90	49	42	13	0	217	10	10	10	80	0
91	53	43	14	14	44	10	100	0	0	0
92	61	52	3	0	208	10	10	10	80	0
93	57	48	23	0	212	10	10	10	80	0
94	56	37	6	0	209	10	10	10	80	0
95	55	54	26	0	214	10	10	10	80	0
96	4	18	35	0	181	10	10	10	80	0
97	26	52	9	0	215	10	10	10	80	0
98	26	35	15	77	107	10	10	90	0	0
99	31	67	3	180	210	10	10	10	80	0

Known Requests 11
Cust	Arrival	Start	Deadline	Demand	Service
9	-1	0	198		30	10
15	-1	0	188		20	10
34	-1	0	185		20	10
42	-1	0	191		20	10
43	-1	64	94		10	10
68	-1	41	71		27	10
78	-1	89	119		30	10
82	-1	0	210		14	10
87	-1	0	212		19	10
91	-1	14	44		14	10
96	-1	0	181		35	10

Unknown Requests 90
Cust	Arrival	Start	Deadline	Demand	Service
50	6	6	196		19	10
66	10	70	100		9	10
7	13	91	121		10	10
37	13	75	105		30	10
52	13	91	121		5	10
98	15	77	107		15	10
75	23	75	105		31	10
10	26	59	89		40	10
22	29	65	95		30	10
43	32	64	94		10	10
78	35	89	119		30	10
25	38	38	171		30	10
86	38	90	120		13	10
14	41	58	88		20	10
47	48	48	184		10	10
45	49	49	192		10	10
36	50	50	189		10	10
8	51	91	121		20	10
49	55	55	194		30	10
90	61	61	217		13	10
83	69	96	126		18	10
30	79	79	179		20	10
80	82	82	217		10	10
30	83	83	179		20	10
50	84	84	196		19	10
19	85	85	194		10	10
92	86	86	208		3	10
25	87	87	171		30	10
41	87	87	196		10	10
89	87	87	225		6	10
87	88	88	212		19	10
39	90	90	189		30	10
96	90	90	181		35	10
32	94	94	178		10	10
97	95	95	215		9	10
44	96	96	192		10	10
99	96	180	210		3	10
15	98	98	188		20	10
33	98	98	182		30	10
70	99	99	204		14	10
73	99	141	171		8	10
90	100	100	217		13	10
77	101	101	197		27	10
55	102	102	211		19	10
93	102	102	212		23	10
74	103	103	172		16	10
81	103	103	215		9	10
27	105	105	174		10	10
57	106	152	182		20	10
64	109	109	218		16	10
31	110	110	178		10	10
94	111	111	209		6	10
17	112	112	184		20	10
1	113	113	199		30	10
26	113	113	172		20	10
42	114	114	191		20	10
88	115	115	177		25	10
71	116	116	202		8	10
76	117	150	180		7	10
49	119	119	194		30	10
28	121	121	177		10	10
5	122	122	196		20	10
20	124	124	185		10	10
9	126	126	198		30	10
60	126	126	214		9	10
2	127	127	190		10	10
56	127	127	203		23	10
3	128	141	171		40	10
11	130	130	197		20	10
58	131	131	187		19	10
47	133	133	184		10	10
48	135	135	191		10	10
16	137	137	189		20	10
54	139	140	170		16	10
65	139	139	216		16	10
4	140	140	189		20	10
45	140	140	192		10	10
59	142	142	203		17	10
6	143	143	194		20	10
23	143	143	194		10	10
69	144	144	210		23	10
36	145	145	189		10	10
53	145	145	211		16	10
95	145	145	214		26	10
18	146	146	189		40	10
46	149	149	191		10	10
13	150	150	194		10	10
21	154	154	195		40	10
79	154	154	222		13	10
82	154	154	210		14	10

Pre bin Customers: 2 Block 1 Customers: 15 Block 2 Customers: 83
Customers appear O times: 15
Customers appear 1 times: 69
Customers appear 2 times: 16
Customers appear 3 times: 0
Customers appear 4 times: 0
